SCIP Status        : solving was interrupted [time limit reached]
Total Time         :    3600.01
  solving          :    3600.00
  presolving       :       0.46 (included in solving)
  reading          :       0.01
  copying          :       0.79 (25 #copies) (minimal 0.00, maximal 0.08, average 0.03)
Original Problem   :
  Problem name     : bbbenchmark/pw05_100.6.cut
  Variables        : 101 (100 binary, 0 integer, 0 implicit integer, 1 continuous)
  Constraints      : 1 initial, 1 maximal
  Objective        : minimize, 1 non-zeros (abs.min = 1, abs.max = 1)
Presolved Problem  :
  Problem name     : t_bbbenchmark/pw05_100.6.cut
  Variables        : 1956 (100 binary, 0 integer, 1843 implicit integer, 13 continuous)
  Constraints      : 1880 initial, 6422 maximal
  Objective        : minimize, 1 non-zeros (abs.min = 1, abs.max = 1)
  Nonzeros         : 8809 constraint, 202 clique table
Presolvers         :   ExecTime  SetupTime  Calls  FixedVars   AggrVars   ChgTypes  ChgBounds   AddHoles    DelCons    AddCons   ChgSides   ChgCoefs
  boundshift       :       0.00       0.00      0          0          0          0          0          0          0          0          0          0
  convertinttobin  :       0.00       0.00      0          0          0          0          0          0          0          0          0          0
  domcol           :       0.00       0.00      1          0          0          0          0          0          0          0          0          0
  dualagg          :       0.00       0.00      0          0          0          0          0          0          0          0          0          0
  dualcomp         :       0.00       0.00      1          0          0          0          0          0          0          0          0          0
  dualinfer        :       0.00       0.00      0          0          0          0          0          0          0          0          0          0
  dualsparsify     :       0.00       0.00      1          0          0          0          0          0          0          0          0          0
  gateextraction   :       0.00       0.00      0          0          0          0          0          0          0          0          0          0
  implics          :       0.00       0.00      2          0          0          0          0          0          0          0          0          0
  inttobinary      :       0.00       0.00      0          0          0          0          0          0          0          0          0          0
  qpkktref         :       0.00       0.00      0          0          0          0          0          0          0          0          0          0
  redvub           :       0.00       0.00      0          0          0          0          0          0          0          0          0          0
  sparsify         :       0.00       0.00      1          0          0          0          0          0          0          0          0          0
  stuffing         :       0.00       0.00      0          0          0          0          0          0          0          0          0          0
  trivial          :       0.00       0.00      4          0          0          0          0          0          0          0          0          0
  tworowbnd        :       0.00       0.00      0          0          0          0          0          0          0          0          0          0
  dualfix          :       0.00       0.00      4          0          0          0          0          0          0          0          0          0
  genvbounds       :       0.00       0.00      0          0          0          0          0          0          0          0          0          0
  probing          :       0.30       0.00      1          0          0          0          0          0          0          0          0          0
  pseudoobj        :       0.00       0.00      1          0          0          0          1          0          0          0          0          0
  symmetry         :       0.00       0.00      0          0          0          0          0          0          0          0          0          0
  vbounds          :       0.00       0.00      1          0          0          0          0          0          0          0          0          0
  varbound         :       0.00       0.00      2          0          0          0          0          0          0          0          0          0
  and              :       0.00       0.00      2          0          0          0          0          0          0          0          0          0
  linear           :       0.00       0.00      2          0          0          0          0          0          0          0          0          0
  logicor          :       0.00       0.00      0          0          0          0          0          0          0          0          0          0
  bounddisjunction :       0.00       0.00      0          0          0          0          0          0          0          0          0          0
  nonlinear        :       0.15       0.01      5          0          0          0          1          0          0       1879          0          0
  benders          :       0.00       0.00      0          0          0          0          0          0          0          0          0          0
  components       :       0.00       0.00      1          0          0          0          0          0          0          0          0          0
  root node        :          -          -      -          0          -          -         12          -          -          -          -          -
Constraints        :     Number  MaxNumber  #Separate #Propagate    #EnfoLP    #EnfoRelax  #EnfoPS    #Check   #ResProp    Cutoffs    DomReds       Cuts    Applied      Conss   Children
  benderslp        :          0          0          0          0      29022          0          0       4870          0          0          0          0          0          0          0
  integral         :          0          0          0          0      29022          0          0       4870          0          0        129          0          0        113      57906
  varbound         :         12         12        116     232525          0          0          0         50          0          0      21483          0          0          0          0
  and              :       1843       1843      39719     273727          8          0          0         50     209001          2     204393       6388       5425          0          0
  linear           :         25+        28        116     273768          8          0          0         48        157          2      81841          0          0          0          0
  logicor          :          0+      4495          0      48997          0          0          0          0         35        102         12          0          0          0          0
  bounddisjunction :          0+        84          0      14934          0          0          0          0          0          3          1          0          0          0          0
  benders          :          0          0          0          0          8          0          0         27          0          0          0          0          0          0          0
  countsols        :          0          0          0          0          8          0          0         27          0          0          0          0          0          0          0
  components       :          0          0          0          0          0          0          0          0          0          0          0          0          0          0          0
Constraint Timings :  TotalTime  SetupTime   Separate  Propagate     EnfoLP     EnfoPS     EnfoRelax   Check    ResProp    SB-Prop
  benderslp        :       0.03       0.00       0.00       0.00       0.03       0.00       0.00       0.00       0.00       0.00
  integral         :      44.43       0.00       0.00       0.00      44.41       0.00       0.00       0.02       0.00       0.00
  varbound         :       0.33       0.00       0.00       0.33       0.00       0.00       0.00       0.00       0.00       0.00
  and              :      41.10       0.00      27.67      13.11       0.00       0.00       0.00       0.00       0.14       0.18
  linear           :       1.60       0.00       0.06       1.52       0.00       0.00       0.00       0.00       0.00       0.02
  logicor          :       3.93       0.00       0.00       3.93       0.00       0.00       0.00       0.00       0.00       0.00
  bounddisjunction :       0.14       0.00       0.00       0.14       0.00       0.00       0.00       0.00       0.00       0.00
  benders          :       0.00       0.00       0.00       0.00       0.00       0.00       0.00       0.00       0.00       0.00
  countsols        :       0.00       0.00       0.00       0.00       0.00       0.00       0.00       0.00       0.00       0.00
  components       :       0.11       0.00       0.00       0.11       0.00       0.00       0.00       0.00       0.00       0.00
Propagators        : #Propagate   #ResProp    Cutoffs    DomReds
  dualfix          :          4          0          0          0
  genvbounds       :          0          0          0          0
  nlobbt           :          0          0          0          0
  obbt             :          0          0          0          0
  probing          :          0          0          0          0
  pseudoobj        :     130620          0          0         19
  redcost          :      74855          0          0      23591
  rootredcost      :         17          0          0          0
  symmetry         :          0          0          0          0
  vbounds          :      39572          0          0          0
Propagator Timings :  TotalTime  SetupTime   Presolve  Propagate    ResProp    SB-Prop
  dualfix          :       0.00       0.00       0.00       0.00       0.00       0.00
  genvbounds       :       0.11       0.00       0.00       0.11       0.00       0.00
  nlobbt           :       0.00       0.00       0.00       0.00       0.00       0.00
  obbt             :       0.00       0.00       0.00       0.00       0.00       0.00
  probing          :       0.30       0.00       0.30       0.00       0.00       0.00
  pseudoobj        :       0.27       0.00       0.00       0.27       0.00       0.00
  redcost          :       5.93       0.00       0.00       5.93       0.00       0.00
  rootredcost      :       0.32       0.00       0.00       0.30       0.00       0.02
  symmetry         :       0.17       0.00       0.00       0.17       0.00       0.00
  vbounds          :       0.23       0.00       0.00       0.23       0.00       0.00
Conflict Analysis  :       Time      Calls    Success    DomReds  Conflicts   Literals    Reconvs ReconvLits   Dualrays   Nonzeros   LP Iters   (pool size: [10000,10000])
  propagation      :       0.00        107         82          -         99       59.2          0        0.0          -          -          -
  infeasible LP    :       0.00          2          2          -         99      146.7          0        0.0          7      138.6          0
  bound exceed. LP :      11.28       2139       2030          -      57109      111.1          1       48.0          0        0.0      23978
  strong branching :       0.00          0          0          -          0        0.0          0        0.0          -          -          0
  pseudo solution  :       0.00          0          0          -          0        0.0          0        0.0          -          -          -
  applied globally :       0.30          -          -          0      12599      124.4          -          -          7          -          -
  applied locally  :          -          -          -          0          0        0.0          -          -          0          -          -
Separators         :   ExecTime  SetupTime      Calls  RootCalls    Cutoffs    DomReds  FoundCuts ViaPoolAdd  DirectAdd    Applied ViaPoolApp  DirectApp      Conss
  cut pool         :      10.53          -      21309        138          -          -      45765    3061853          -          -          -          -          -    (maximal pool size:       4677)
  aggregation      :     642.87       0.00       9070        116          0          0        208        179          0         49         49          0          0
  > cmir           :          -          -          -          -          -          -          -        176          0         47         47          0          -
  > flowcover      :          -          -          -          -          -          -          -          3          0          2          2          0          -
  > knapsackcover  :          -          -          -          -          -          -          -          0          0          0          0          0          -
  cgmip            :       0.00       0.00          0          0          0          0          0          0          0          0          0          0          0
  clique           :       0.01       0.00        116        116          0          0          0          0          0          0          0          0          0
  closecuts        :       0.00       0.00          0          0          0          0          0          0          0          0          0          0          0
  convexproj       :       0.00       0.00          0          0          0          0          0          0          0          0          0          0          0
  disjunctive      :       0.00       0.00          0          0          0          0          0          0          0          0          0          0          0
  eccuts           :       0.00       0.00          0          0          0          0          0          0          0          0          0          0          0
  gauge            :       0.00       0.00          0          0          0          0          0          0          0          0          0          0          0
  gomory           :       0.00       0.00          0          0          0          0          0          0          0          0          0          0          0
  > gomorymi       :          -          -          -          -          -          -          -          0          0          0          0          0          -
  > strongcg       :          -          -          -          -          -          -          -          0          0          0          0          0          -
  impliedbounds    :       0.86       0.00       9070        116          0          0         38          4          0          3          3          0          0
  interlattice     :       0.00       0.00          0          0          0          0          0          0          0          0          0          0          0
  interminor       :       0.00       0.00          0          0          0          0          0          0          0          0          0          0          0
  intersub         :       1.56       0.00         80         80          0          0         80          0         80         80          0         80          0
  intobj           :       0.00       0.00          0          0          0          0          0          0          0          0          0          0          0
  mcf              :       0.01       0.00          1          1          0          0          0          0          0          0          0          0          0
  minor            :       0.03       0.00          0          0          0          0          0          0          0          0          0          0          0
  mixing           :       0.03       0.00       9070        116          0          0          0          0          0          0          0          0          0
  oddcycle         :       0.00       0.00          0          0          0          0          0          0          0          0          0          0          0
  rapidlearning    :       0.00       0.00          0          0          0          0          0          0          0          0          0          0          0
  rlt              :       0.00       0.00         10         10          0          0          0          0          0          0          0          0          0
  zerohalf         :      93.11       0.00       7893         20          0          0      45519    3061670          0     170197     170197          0          0
Cutselectors       :   ExecTime  SetupTime      Calls  RootCalls   Selected     Forced   Filtered  RootSelec   RootForc   RootFilt 
  hybrid           :       3.79       0.00      13340        114     175754          0    2892567        283          0         64
Pricers            :   ExecTime  SetupTime      Calls       Vars
  problem variables:       0.00          -          0          0
Branching Rules    :   ExecTime  SetupTime   BranchLP  BranchExt   BranchPS    Cutoffs    DomReds       Cuts      Conss   Children
  allfullstrong    :       0.00       0.00          0          0          0          0          0          0          0          0
  cloud            :       0.00       0.00          0          0          0          0          0          0          0          0
  distribution     :       0.00       0.00          0          0          0          0          0          0          0          0
  fullstrong       :       0.00       0.00          0          0          0          0          0          0          0          0
  inference        :       0.00       0.00          0          0          0          0          0          0          0          0
  leastinf         :       0.00       0.00          0          0          0          0          0          0          0          0
  lookahead        :       0.00       0.00          0          0          0          0          0          0          0          0
  mostinf          :       0.00       0.00          0          0          0          0          0          0          0          0
  multaggr         :       0.00       0.00          0          0          0          0          0          0          0          0
  nodereopt        :       0.00       0.00          0          0          0          0          0          0          0          0
  pscost           :       0.00       0.00          0          0          0          0          0          0          0          0
  random           :       0.00       0.00          0          0          0          0          0          0          0          0
  relpscost        :      44.30       0.00      29014          0          0          0        129          0        117      57906
  vanillafullstrong:       0.00       0.00          0          0          0          0          0          0          0          0
Primal Heuristics  :   ExecTime  SetupTime      Calls      Found       Best
  LP solutions     :       0.03          -          -          8          8
  relax solutions  :       0.00          -          -          0          0
  pseudo solutions :       0.00          -          -          0          0
  strong branching :       0.01          -          -          0          0
  actconsdiving    :       0.00       0.00          0          0          0
  adaptivediving   :       5.63       0.00         24          0          0
  alns             :       0.88       0.00         10          0          0
  bound            :       0.00       0.00          0          0          0
  clique           :       0.01       0.00          1          0          0
  coefdiving       :       0.00       0.00          0          0          0
  completesol      :       0.00       0.00          0          0          0
  conflictdiving   :      36.86       0.00        190          0          0
  crossover        :       0.53       0.00          4          1          1
  dins             :       0.00       0.00          0          0          0
  distributiondivin:      56.70       0.00        189          0          0
  dps              :       0.00       0.00          0          0          0
  dualval          :       0.00       0.00          0          0          0
  farkasdiving     :       0.00       0.00          0          0          0
  feaspump         :       0.86       0.00          1          1          1
  fixandinfer      :       0.00       0.00          0          0          0
  fracdiving       :      39.13       0.00        190          0          0
  gins             :       0.03       0.00          0          0          0
  guideddiving     :      37.31       0.00        189          0          0
  indicator        :       0.04       0.00          0          0          0
  indicatordiving  :       0.00       0.00          0          0          0
  intdiving        :       0.00       0.00          0          0          0
  intshifting      :       0.61       0.00         19          0          0
  linesearchdiving :      36.69       0.00        189          0          0
  localbranching   :       0.00       0.00          0          0          0
  locks            :       0.01       0.00          1          0          0
  lpface           :       0.09       0.00          0          0          0
  mpec             :     159.81       0.00         11          6          6
  multistart       :       0.00       0.00          0          0          0
  mutation         :       0.00       0.00          0          0          0
  nlpdiving        :      19.31       0.00          3          0          0
  objpscostdiving  :      56.78       0.00         26          5          0
  octane           :       0.00       0.00          0          0          0
  ofins            :       0.03       0.00          0          0          0
  oneopt           :       0.06       0.00         24          0          0
  padm             :       0.00       0.00          0          0          0
  proximity        :       0.00       0.00          0          0          0
  pscostdiving     :      44.28       0.00        189          1          1
  randrounding     :       0.92       0.00       4839          0          0
  rens             :       0.00       0.00          0          0          0
  reoptsols        :       0.00       0.00          0          0          0
  repair           :       0.00       0.00          0          0          0
  rins             :       0.65       0.00         10          0          0
  rootsoldiving    :      35.30       0.00         18          1          0
  rounding         :       1.10       0.00       2730          0          0
  shiftandpropagate:       0.00       0.00          0          0          0
  shifting         :      49.28       0.00       8272          6          5
  simplerounding   :       0.09       0.00          0          0          0
  subnlp           :      67.58       0.00          0          0          0
  trivial          :       0.01       0.00          2          2          2
  trivialnegation  :       0.00       0.00          0          0          0
  trustregion      :       0.00       0.00          0          0          0
  trysol           :       0.07       0.00          0          0          0
  twoopt           :       0.00       0.00          0          0          0
  undercover       :       0.42       0.00          1          1          1
  vbounds          :       0.00       0.00          0          0          0
  veclendiving     :      32.57       0.00        190          0          0
  zeroobj          :       0.00       0.00          0          0          0
  zirounding       :       0.44       0.00       1000          0          0
  other solutions  :          -          -          -          0          -
Diving (single)    :      Calls      Nodes   LP Iters Backtracks  Conflicts   MinDepth   MaxDepth   AvgDepth  RoundSols  NLeafSols  MinSolDpt  MaxSolDpt  AvgSolDpt
  actconsdiving    :          0          -          -          -          -          -          -          -          -          -          -          -          -
  coefdiving       :          0          -          -          -          -          -          -          -          -          -          -          -          -
  conflictdiving   :        190       7974     212421        191      13295         52         76       59.5          0          -          -          -          -
  distributiondivin:        189       6964     303622        208       6313         44         72       53.0          0          -          -          -          -
  farkasdiving     :          0          -          -          -          -          -          -          -          -          -          -          -          -
  fracdiving       :        190      29217     238184         47        888         55        420      171.2          0          -          -          -          -
  guideddiving     :        189      25958     230690         18        724         55        399      155.2          0          -          -          -          -
  indicatordiving  :          0          -          -          -          -          -          -          -          -          -          -          -          -
  linesearchdiving :        189       8945     240203        208      11217         47         92       64.0          0          -          -          -          -
  pscostdiving     :        189       8667     291798        191       8133         45         84       62.1          0          1         84         84       84.0
  veclendiving     :        190       8278     197108        188      14887         54         90       60.7          0          -          -          -          -
Diving (adaptive)  :      Calls      Nodes   LP Iters Backtracks  Conflicts   MinDepth   MaxDepth   AvgDepth  RoundSols  NLeafSols  MinSolDpt  MaxSolDpt  AvgSolDpt
  actconsdiving    :          3        125       4760          3         55         52         59       55.7          0          -          -          -          -
  coefdiving       :          6        254       6101          6        407         55         64       58.3          0          -          -          -          -
  conflictdiving   :          0          -          -          -          -          -          -          -          -          -          -          -          -
  distributiondivin:          0          -          -          -          -          -          -          -          -          -          -          -          -
  farkasdiving     :          0          -          -          -          -          -          -          -          -          -          -          -          -
  fracdiving       :          2        475       2909          0          0        188        316      252.0          0          -          -          -          -
  guideddiving     :          6        861       8206          0          0         88        245      159.8          0          -          -          -          -
  indicatordiving  :          0          -          -          -          -          -          -          -          -          -          -          -          -
  linesearchdiving :          3        130       4785          5        215         54         70       59.7          0          -          -          -          -
  pscostdiving     :          1         45       1294          1         53         62         62       62.0          0          -          -          -          -
  veclendiving     :          3        130       3152          3        232         58         60       59.0          0          -          -          -          -
Neighborhoods      :      Calls  SetupTime  SolveTime SolveNodes       Sols       Best       Exp3  EpsGreedy        UCB TgtFixRate  Opt  Inf Node Stal  Sol  Usr Othr Actv
  rens             :          2       0.17       0.02          1          0          0    0.00000   -1.00000    0.54230      0.550    0    2    0    0    0    0    0    1
  rins             :          1       0.10       0.01          1          0          0    0.00000   -1.00000    0.56094      0.700    0    1    0    0    0    0    0    1
  mutation         :          2       0.14       0.04         12          0          0    0.00000   -1.00000    0.52740      0.550    0    2    0    0    0    0    0    1
  localbranching   :          1       0.05       0.02         13          0          0    0.00000   -1.00000    0.54894      0.700    0    1    0    0    0    0    0    1
  crossover        :          1       0.06       0.01          1          0          0    0.00000   -1.00000    0.56094      0.700    0    1    0    0    0    0    0    1
  proximity        :          1       0.04       0.01          1          0          0    0.00000   -1.00000    0.56094      0.700    0    1    0    0    0    0    0    1
  zeroobjective    :          1       0.04       0.01          1          0          0    0.00000   -1.00000    0.56094      0.700    0    1    0    0    0    0    0    1
  dins             :          1       0.05       0.01          1          0          0    0.00000   -1.00000    0.56094      0.700    0    1    0    0    0    0    0    1
  trustregion      :          0       0.00       0.00          0          0          0    0.00000   -1.00000    1.00000      0.900    0    0    0    0    0    0    0    0
Expressions        :   #IntEval  IntEvalTi   #RevProp  RevPropTi    DomReds    Cutoffs  #Estimate  EstimTime  Branching  #Simplify SimplifyTi Simplified
  pow              :          0       0.00          0       0.00          0          0          0       0.00          0          0       0.00          0
  prod             :       9900       0.00          0       0.00          0          0          0       0.00          0       6793       0.01          0
  sum              :          8       0.00          2       0.00          0          0          0       0.00          0          3       0.03          2
  var              :       6677       0.00          0       0.00          0          0          0       0.00          0      15744       0.01          0
  varidx           :          0       0.00          0       0.00          0          0          0       0.00          0          0       0.00          0
LP                 :       Time      Calls Iterations  Iter/call   Iter/sec  Time-0-It Calls-0-It    ItLimit
  primal LP        :     137.07       5758          0       0.00       0.00     137.06       5758
  dual LP          :    1857.50      64612    7081564     115.81    3812.42       2.07       3466
  lex dual LP      :       0.00          0          0       0.00          -
  barrier LP       :       0.00          0          0       0.00          -       0.00          0
  resolve instable :       0.00          0          0       0.00          -
  diving/probing LP:     334.78       7170    2126792     296.62    6352.80
  strong branching :      31.66        977     178708     182.92    5644.60          -          -         45
    (at root node) :          -         19       9236     486.11          -
  conflict analysis:       5.19       2420      23978       9.91    4620.04
NLP relaxation     :
  solve time       :      19.22 (9 calls)
  convexity        :  nonconvex (37 linear rows, 0 convex ineq., 0 nonconvex ineq., 1843 nonlinear eq. or two-sided ineq.)
NLP Solvers        :  #Problems  ProblemTi    #Solves  SolveTime      #Iter  Time/Iter      #Okay #TimeLimit #IterLimit #LObjLimit #Interrupt  #NumError #EvalError  #OutOfMem #LicenseEr #OtherTerm   #GlobOpt    #LocOpt  #Feasible #LocInfeas #GlobInfea #Unbounded   #Unknown
  ipopt            :         12       2.76         38     186.24       1947       0.10         36          0          2          0          0          0          0          0          0          0          0         23          0         11          0          0          4
B&B Tree           :
  number of runs   :          1
  nodes            :      47758 (28953 internal, 18805 leaves)
  feasible leaves  :          8
  infeas. leaves   :          7
  objective leaves :      18789
  nodes (total)    :      47758 (28953 internal, 18805 leaves)
  nodes left       :       9945
  max depth        :         60
  max depth (total):         60
  backtracks       :      11260 (23.6%)
  early backtracks :          0 (0.0%)
  nodes exc. ref.  :          0 (0.0%)
  delayed cutoffs  :          5
  repropagations   :         34 (41 domain reductions, 0 cutoffs)
  avg switch length:       5.75
  switching time   :     146.11
Estim. Tree Size   :      95924
Estimation Tree    : 57907 nodes (47962 visited, 28953 internal, 19009 leaves, 9945 open), weight: 0.0000 completed 0.1089
Estimations        :      estim      value      trend resolution     smooth
  wbe              : 21178920788378          -          -          -          -
  tree-profile     :         -1          -          -          -          -
  gap              :     306754    0.68235    0.00008         32     348631
  tree-weight      :      95924    0.00000    0.00000         32      95846
  leaf-frequency   :      95924    0.39632   -0.00001         32     271886
  ssg              :     734267    0.82807   -0.00008         32     735505
  open-nodes       :      95924 9945.00000   10.72316         32      95846
Root Node          :
  First LP value   : -5.58505050505052e+00
  First LP Iters   :       1626 (10162.50 Iter/sec)
  First LP Time    :       0.16
  Final Dual Bound : -5.31049524970154e+00
  Final Root Iters :       6441
  Root LP Estimate : -1.85671471528498e+00
Solution           :
  Solutions found  :         32 (25 improvements)
  First Solution   : +1.00000000000000e+05   (in run 1, after 0 nodes, 0.00 seconds, depth 0, found by <trivial>)
  Gap First Sol.   :   infinite
  Gap Last Sol.    :      53.23 %
  Primal Bound     : -3.22989898989899e+00   (in run 1, after 9097 nodes, 606.27 seconds, depth 60, found by <crossover>)
  Dual Bound       : -4.73350015006619e+00
  Gap              :      46.55 %
Integrals          :      Total       Avg%
  primal-dual      :  123384.06      34.27
  primal-ref       :          -          - (not evaluated)
  dual-ref         :          -          - (not evaluated)
